--------------------------------------------------------------------------------(Solver execution current time: 0.00016379356384277344)
[INFO] Input Seed : 0
--------------------------------------------------------------------------------(Solver execution current time: 0.0001938343048095703)
[INFO] Input time limit : 20
--------------------------------------------------------------------------------(Solver execution current time: 0.00021648406982421875)
[INFO] Command line arguments read with no errors.
--------------------------------------------------------------------------------(Solver execution current time: 0.001003265380859375)
[INFO] Input file read with no errors.
--------------------------------------------------------------------------------(Solver execution current time: 0.0010557174682617188)
[INFO] Starting solver.
--------------------------------------------------------------------------------(Solver execution current time: 0.0010859966278076172)
[INFO] Starting construction
--------------------------------------------------------------------------------(Solver execution current time: 0.010270118713378906)
[INFO] Finished construction
--------------------------------------------------------------------------------(Solver execution current time: 0.010554075241088867)
[SOLUTION]
Solution after BasicGreedy
obj_value: 2; obj_routes: 145506
Route 1 : 2 7 3 8 4 9 
Route 2 : 1 5 10 6 

--------------------------------------------------------------------------------(Solver execution current time: 0.01069188117980957)
[INFO] Starting metaheuristic
--------------------------------------------------------------------------------(Solver execution current time: 0.04351663589477539)
[SOLUTION]
AGES
IT: 1
Exec Time: 0.03198695182800293
obj_value: 2; obj_routes: 145506
Route 1 : 2 7 3 8 4 9 
Route 2 : 1 5 10 6 

--------------------------------------------------------------------------------(Solver execution current time: 0.07956695556640625)
[SOLUTION]
LNS
IT: 40
Exec Time: 0.0354156494140625
obj_value: 2; obj_routes: 145506
Route 1 : 2 7 3 8 4 9 
Route 2 : 1 5 10 6 

--------------------------------------------------------------------------------(Solver execution current time: 0.1440281867980957)
[SOLUTION]
PartitionMaxRequests
Exec Time: 0.06400227546691895
obj_value: 2; obj_routes: 145506
Route 1 : 2 7 3 8 4 9 
Route 2 : 1 5 10 6 

--------------------------------------------------------------------------------(Solver execution current time: 0.18439197540283203)
[SOLUTION]
Original Perturbation
Exec Time: 0.039920806884765625
obj_value: 2; obj_routes: 122092
Route 1 : 1 5 2 10 7 6 
Route 2 : 3 4 8 9 

--------------------------------------------------------------------------------(Solver execution current time: 0.18477416038513184)
[SOLUTION]
SBMath
IT: 1
ITs witout improving: 1
IT time: 0.17356419563293457
Time since begin: 0.17378926277160645
obj_value: 2; obj_routes: 122092
Route 1 : 1 5 2 10 7 6 
Route 2 : 3 4 8 9 

--------------------------------------------------------------------------------(Solver execution current time: 0.1848766803741455)
[SOLUTION]
SBMath
IT: 1
ITs witout improving: 1
IT time: 0.17356419563293457
Time since begin: 0.17378926277160645
obj_value: 2; obj_routes: 111163
Route 1 : 1 5 2 7 10 6 4 9 
Route 2 : 3 8 

--------------------------------------------------------------------------------(Solver execution current time: 0.20114636421203613)
[SOLUTION]
AGES
IT: 1
Exec Time: 0.015730857849121094
obj_value: 2; obj_routes: 122092
Route 1 : 1 5 2 10 7 6 
Route 2 : 3 4 8 9 

--------------------------------------------------------------------------------(Solver execution current time: 0.23729801177978516)
[SOLUTION]
LNS
IT: 40
Exec Time: 0.03546571731567383
Improved
obj_value: 2; obj_routes: 118098
Route 1 : 1 5 2 10 7 6 
Route 2 : 3 8 4 9 

--------------------------------------------------------------------------------(Solver execution current time: 0.24004721641540527)
[SOLUTION]
PartitionMaxRequests
Exec Time: 0.0021936893463134766
obj_value: 2; obj_routes: 118098
Route 1 : 1 5 2 10 7 6 
Route 2 : 3 8 4 9 

--------------------------------------------------------------------------------(Solver execution current time: 0.26645660400390625)
[SOLUTION]
Original Perturbation
Exec Time: 0.026064395904541016
obj_value: 2; obj_routes: 111163
Route 1 : 3 8 
Route 2 : 1 5 2 7 10 6 4 9 

--------------------------------------------------------------------------------(Solver execution current time: 0.2668159008026123)
[SOLUTION]
SBMath
IT: 2
ITs witout improving: 2
IT time: 0.08172845840454102
Time since begin: 0.2558307647705078
obj_value: 2; obj_routes: 111163
Route 1 : 3 8 
Route 2 : 1 5 2 7 10 6 4 9 

--------------------------------------------------------------------------------(Solver execution current time: 0.26691746711730957)
[SOLUTION]
SBMath
IT: 2
ITs witout improving: 2
IT time: 0.08172845840454102
Time since begin: 0.2558307647705078
obj_value: 2; obj_routes: 111163
Route 1 : 1 5 2 7 10 6 4 9 
Route 2 : 3 8 

--------------------------------------------------------------------------------(Solver execution current time: 0.28902244567871094)
[SOLUTION]
AGES
IT: 1
Exec Time: 0.021547555923461914
obj_value: 2; obj_routes: 111163
Route 1 : 3 8 
Route 2 : 1 5 2 7 10 6 4 9 

--------------------------------------------------------------------------------(Solver execution current time: 0.3232460021972656)
[SOLUTION]
LNS
IT: 40
Exec Time: 0.03358912467956543
obj_value: 2; obj_routes: 111163
Route 1 : 3 8 
Route 2 : 1 5 2 7 10 6 4 9 

--------------------------------------------------------------------------------(Solver execution current time: 0.32678985595703125)
[SOLUTION]
PartitionMaxRequests
Exec Time: 0.002934694290161133
obj_value: 2; obj_routes: 111163
Route 1 : 3 8 
Route 2 : 1 5 2 7 10 6 4 9 

--------------------------------------------------------------------------------(Solver execution current time: 0.344221830368042)
[SOLUTION]
Original Perturbation
Exec Time: 0.017118453979492188
obj_value: 2; obj_routes: 149500
Route 1 : 2 7 3 4 8 9 
Route 2 : 1 5 10 6 

--------------------------------------------------------------------------------(Solver execution current time: 0.3445918560028076)
[SOLUTION]
SBMath
IT: 3
ITs witout improving: 3
IT time: 0.07745003700256348
Time since begin: 0.3336067199707031
obj_value: 2; obj_routes: 149500
Route 1 : 2 7 3 4 8 9 
Route 2 : 1 5 10 6 

--------------------------------------------------------------------------------(Solver execution current time: 0.3446948528289795)
[SOLUTION]
SBMath
IT: 3
ITs witout improving: 3
IT time: 0.07745003700256348
Time since begin: 0.3336067199707031
obj_value: 2; obj_routes: 111163
Route 1 : 1 5 2 7 10 6 4 9 
Route 2 : 3 8 

--------------------------------------------------------------------------------(Solver execution current time: 0.35807085037231445)
[SOLUTION]
AGES
IT: 1
Exec Time: 0.01282048225402832
obj_value: 2; obj_routes: 149500
Route 1 : 2 7 3 4 8 9 
Route 2 : 1 5 10 6 

--------------------------------------------------------------------------------(Solver execution current time: 0.39203596115112305)
[SOLUTION]
LNS
IT: 40
Exec Time: 0.033330440521240234
obj_value: 2; obj_routes: 149500
Route 1 : 2 7 3 4 8 9 
Route 2 : 1 5 10 6 

--------------------------------------------------------------------------------(Solver execution current time: 0.39534711837768555)
[SOLUTION]
PartitionMaxRequests
Exec Time: 0.0028417110443115234
Improvedobj_value: 2; obj_routes: 111163
Route 1 : 3 8 
Route 2 : 1 5 2 7 10 6 4 9 

--------------------------------------------------------------------------------(Solver execution current time: 0.416365385055542)
[SOLUTION]
Original Perturbation
Exec Time: 0.02069687843322754
obj_value: 2; obj_routes: 145506
Route 1 : 1 5 10 6 
Route 2 : 2 7 3 8 4 9 

--------------------------------------------------------------------------------(Solver execution current time: 0.41672277450561523)
[SOLUTION]
SBMath
IT: 4
ITs witout improving: 4
IT time: 0.07180452346801758
Time since begin: 0.40573763847351074
obj_value: 2; obj_routes: 145506
Route 1 : 1 5 10 6 
Route 2 : 2 7 3 8 4 9 

--------------------------------------------------------------------------------(Solver execution current time: 0.416837215423584)
[SOLUTION]
SBMath
IT: 4
ITs witout improving: 4
IT time: 0.07180452346801758
Time since begin: 0.40573763847351074
obj_value: 2; obj_routes: 111163
Route 1 : 1 5 2 7 10 6 4 9 
Route 2 : 3 8 

--------------------------------------------------------------------------------(Solver execution current time: 0.4332096576690674)
[SOLUTION]
AGES
IT: 1
Exec Time: 0.01582026481628418
obj_value: 2; obj_routes: 145506
Route 1 : 1 5 10 6 
Route 2 : 2 7 3 8 4 9 

--------------------------------------------------------------------------------(Solver execution current time: 0.4668135643005371)
[SOLUTION]
LNS
IT: 40
Exec Time: 0.032962799072265625
obj_value: 2; obj_routes: 145506
Route 1 : 1 5 10 6 
Route 2 : 2 7 3 8 4 9 

--------------------------------------------------------------------------------(Solver execution current time: 0.4701416492462158)
[SOLUTION]
PartitionMaxRequests
Exec Time: 0.002862215042114258
Improvedobj_value: 2; obj_routes: 111163
Route 1 : 3 8 
Route 2 : 1 5 2 7 10 6 4 9 

--------------------------------------------------------------------------------(Solver execution current time: 0.4870166778564453)
[SOLUTION]
Original Perturbation
Exec Time: 0.016562461853027344
obj_value: 2; obj_routes: 111163
Route 1 : 1 5 2 7 10 6 4 9 
Route 2 : 3 8 

--------------------------------------------------------------------------------(Solver execution current time: 0.4873664379119873)
[SOLUTION]
SBMath
IT: 5
ITs witout improving: 5
IT time: 0.0703127384185791
Time since begin: 0.476381778717041
obj_value: 2; obj_routes: 111163
Route 1 : 1 5 2 7 10 6 4 9 
Route 2 : 3 8 

--------------------------------------------------------------------------------(Solver execution current time: 0.4874699115753174)
[SOLUTION]
SBMath
IT: 5
ITs witout improving: 5
IT time: 0.0703127384185791
Time since begin: 0.476381778717041
obj_value: 2; obj_routes: 111163
Route 1 : 1 5 2 7 10 6 4 9 
Route 2 : 3 8 

--------------------------------------------------------------------------------(Solver execution current time: 0.496675968170166)
[SOLUTION]
AGES
IT: 1
Exec Time: 0.008648395538330078
obj_value: 2; obj_routes: 111163
Route 1 : 1 5 2 7 10 6 4 9 
Route 2 : 3 8 

--------------------------------------------------------------------------------(Solver execution current time: 0.5541725158691406)
[SOLUTION]
LNS
IT: 40
Exec Time: 0.0569000244140625
obj_value: 2; obj_routes: 111163
Route 1 : 1 5 2 7 10 6 4 9 
Route 2 : 3 8 

--------------------------------------------------------------------------------(Solver execution current time: 0.5586085319519043)
[SOLUTION]
PartitionMaxRequests
Exec Time: 0.003689289093017578
obj_value: 2; obj_routes: 111163
Route 1 : 3 8 
Route 2 : 1 5 2 7 10 6 4 9 

--------------------------------------------------------------------------------(Solver execution current time: 0.5739612579345703)
[SOLUTION]
Original Perturbation
Exec Time: 0.01501917839050293
obj_value: 2; obj_routes: 120187
Route 1 : 3 4 8 9 
Route 2 : 1 5 2 7 10 6 

--------------------------------------------------------------------------------(Solver execution current time: 0.5743050575256348)
[SOLUTION]
SBMath
IT: 6
ITs witout improving: 6
IT time: 0.08660531044006348
Time since begin: 0.5633201599121094
obj_value: 2; obj_routes: 120187
Route 1 : 3 4 8 9 
Route 2 : 1 5 2 7 10 6 

--------------------------------------------------------------------------------(Solver execution current time: 0.5744078159332275)
[SOLUTION]
SBMath
IT: 6
ITs witout improving: 6
IT time: 0.08660531044006348
Time since begin: 0.5633201599121094
obj_value: 2; obj_routes: 111163
Route 1 : 1 5 2 7 10 6 4 9 
Route 2 : 3 8 

--------------------------------------------------------------------------------(Solver execution current time: 0.5884826183319092)
[SOLUTION]
AGES
IT: 1
Exec Time: 0.013529062271118164
obj_value: 2; obj_routes: 120187
Route 1 : 3 4 8 9 
Route 2 : 1 5 2 7 10 6 

--------------------------------------------------------------------------------(Solver execution current time: 0.6218924522399902)
[SOLUTION]
LNS
IT: 40
Exec Time: 0.03280925750732422
obj_value: 2; obj_routes: 120187
Route 1 : 3 4 8 9 
Route 2 : 1 5 2 7 10 6 

--------------------------------------------------------------------------------(Solver execution current time: 0.6252198219299316)
[SOLUTION]
PartitionMaxRequests
Exec Time: 0.002863168716430664
Improvedobj_value: 2; obj_routes: 111163
Route 1 : 3 8 
Route 2 : 1 5 2 7 10 6 4 9 

--------------------------------------------------------------------------------(Solver execution current time: 0.6459038257598877)
[SOLUTION]
Original Perturbation
Exec Time: 0.02037644386291504
obj_value: 2; obj_routes: 113068
Route 1 : 1 5 2 10 7 6 4 9 
Route 2 : 3 8 

--------------------------------------------------------------------------------(Solver execution current time: 0.6462669372558594)
[SOLUTION]
SBMath
IT: 7
ITs witout improving: 7
IT time: 0.0716395378112793
Time since begin: 0.6352808475494385
obj_value: 2; obj_routes: 113068
Route 1 : 1 5 2 10 7 6 4 9 
Route 2 : 3 8 

--------------------------------------------------------------------------------(Solver execution current time: 0.6463799476623535)
[SOLUTION]
SBMath
IT: 7
ITs witout improving: 7
IT time: 0.0716395378112793
Time since begin: 0.6352808475494385
obj_value: 2; obj_routes: 111163
Route 1 : 1 5 2 7 10 6 4 9 
Route 2 : 3 8 

--------------------------------------------------------------------------------(Solver execution current time: 0.665574312210083)
[SOLUTION]
AGES
IT: 1
Exec Time: 0.018657684326171875
obj_value: 2; obj_routes: 113068
Route 1 : 1 5 2 10 7 6 4 9 
Route 2 : 3 8 

--------------------------------------------------------------------------------(Solver execution current time: 0.6989645957946777)
[SOLUTION]
LNS
IT: 40
Exec Time: 0.03271150588989258
obj_value: 2; obj_routes: 113068
Route 1 : 1 5 2 10 7 6 4 9 
Route 2 : 3 8 

--------------------------------------------------------------------------------(Solver execution current time: 0.702307939529419)
[SOLUTION]
PartitionMaxRequests
Exec Time: 0.0028731822967529297
Improvedobj_value: 2; obj_routes: 111163
Route 1 : 3 8 
Route 2 : 1 5 2 7 10 6 4 9 

--------------------------------------------------------------------------------(Solver execution current time: 0.7176034450531006)
[SOLUTION]
Original Perturbation
Exec Time: 0.014978647232055664
obj_value: 2; obj_routes: 113068
Route 1 : 3 8 
Route 2 : 1 5 2 10 7 6 4 9 

--------------------------------------------------------------------------------(Solver execution current time: 0.7179489135742188)
[SOLUTION]
SBMath
IT: 8
ITs witout improving: 8
IT time: 0.07135605812072754
Time since begin: 0.7069640159606934
obj_value: 2; obj_routes: 113068
Route 1 : 3 8 
Route 2 : 1 5 2 10 7 6 4 9 

--------------------------------------------------------------------------------(Solver execution current time: 0.7180619239807129)
[SOLUTION]
SBMath
IT: 8
ITs witout improving: 8
IT time: 0.07135605812072754
Time since begin: 0.7069640159606934
obj_value: 2; obj_routes: 111163
Route 1 : 1 5 2 7 10 6 4 9 
Route 2 : 3 8 

--------------------------------------------------------------------------------(Solver execution current time: 0.7273674011230469)
[SOLUTION]
AGES
IT: 1
Exec Time: 0.008640050888061523
obj_value: 2; obj_routes: 113068
Route 1 : 3 8 
Route 2 : 1 5 2 10 7 6 4 9 

--------------------------------------------------------------------------------(Solver execution current time: 0.7600793838500977)
[SOLUTION]
LNS
IT: 40
Exec Time: 0.03210639953613281
obj_value: 2; obj_routes: 113068
Route 1 : 3 8 
Route 2 : 1 5 2 10 7 6 4 9 

--------------------------------------------------------------------------------(Solver execution current time: 0.7633528709411621)
[SOLUTION]
PartitionMaxRequests
Exec Time: 0.002794981002807617
Improvedobj_value: 2; obj_routes: 111163
Route 1 : 3 8 
Route 2 : 1 5 2 7 10 6 4 9 

--------------------------------------------------------------------------------(Solver execution current time: 0.7776775360107422)
[SOLUTION]
Original Perturbation
Exec Time: 0.014019966125488281
obj_value: 2; obj_routes: 151845
Route 1 : 1 3 6 8 
Route 2 : 5 2 7 10 4 9 

--------------------------------------------------------------------------------(Solver execution current time: 0.7780253887176514)
[SOLUTION]
SBMath
IT: 9
ITs witout improving: 9
IT time: 0.05962824821472168
Time since begin: 0.7670402526855469
obj_value: 2; obj_routes: 151845
Route 1 : 1 3 6 8 
Route 2 : 5 2 7 10 4 9 

--------------------------------------------------------------------------------(Solver execution current time: 0.7781391143798828)
[SOLUTION]
SBMath
IT: 9
ITs witout improving: 9
IT time: 0.05962824821472168
Time since begin: 0.7670402526855469
obj_value: 2; obj_routes: 111163
Route 1 : 1 5 2 7 10 6 4 9 
Route 2 : 3 8 

--------------------------------------------------------------------------------(Solver execution current time: 0.7885603904724121)
[SOLUTION]
AGES
IT: 1
Exec Time: 0.009875297546386719
obj_value: 2; obj_routes: 151845
Route 1 : 1 3 6 8 
Route 2 : 5 2 7 10 4 9 

--------------------------------------------------------------------------------(Solver execution current time: 0.8218650817871094)
[SOLUTION]
LNS
IT: 40
Exec Time: 0.03270864486694336
obj_value: 2; obj_routes: 151845
Route 1 : 1 3 6 8 
Route 2 : 5 2 7 10 4 9 

--------------------------------------------------------------------------------(Solver execution current time: 0.8253204822540283)
[SOLUTION]
PartitionMaxRequests
Exec Time: 0.002902507781982422
Improvedobj_value: 2; obj_routes: 111163
Route 1 : 3 8 
Route 2 : 1 5 2 7 10 6 4 9 

--------------------------------------------------------------------------------(Solver execution current time: 0.8373250961303711)
[SOLUTION]
Original Perturbation
Exec Time: 0.01170969009399414
obj_value: 2; obj_routes: 149500
Route 1 : 1 5 10 6 
Route 2 : 2 7 3 4 8 9 

--------------------------------------------------------------------------------(Solver execution current time: 0.837653636932373)
[SOLUTION]
SBMath
IT: 10
ITs witout improving: 10
IT time: 0.05929827690124512
Time since begin: 0.8266680240631104
obj_value: 2; obj_routes: 149500
Route 1 : 1 5 10 6 
Route 2 : 2 7 3 4 8 9 

--------------------------------------------------------------------------------(Solver execution current time: 0.8377633094787598)
[SOLUTION]
SBMath
IT: 10
ITs witout improving: 10
IT time: 0.05929827690124512
Time since begin: 0.8266680240631104
obj_value: 2; obj_routes: 111163
Route 1 : 1 5 2 7 10 6 4 9 
Route 2 : 3 8 

--------------------------------------------------------------------------------(Solver execution current time: 0.8380377292633057)
[INFO] Finished metaheuristic
--------------------------------------------------------------------------------(Solver execution current time: 0.8380820751190186)
[SOLUTION]
Solution after SBMath
obj_value: 2; obj_routes: 111163
Route 1 : 1 5 2 7 10 6 4 9 
Route 2 : 3 8 

--------------------------------------------------------------------------------(Solver execution current time: 0.8382341861724854)
[INFO] Algorithm execution time : 0.8390603065490723
--------------------------------------------------------------------------------(Solver execution current time: 0.838569164276123)
[SOLUTION]
Final Solution Verification
====================================
Constraints verification: 
Homogenous Capacity Constraint OK
Time Windwos Constraint OK
Pickup and Delivery Constraint OK
Attend All Requests Constraint OK
====================================
Obj Func verification: 
SOLUTION COST OK
------------------------------------
ROUTES TOTAL COST OK
------------------------------------
REQUESTS TOTAL COST OK
------------------------------------
OBJECTIVE VALUE: 2
ROUTES VALUE: 111163
------------------------------------

Best Solution: 
obj_value: 2; obj_routes: 111163
Route 1 : 1 5 2 7 10 6 4 9 
Route 2 : 3 8 

--------------------------------------------------------------------------------